[VALIDATOR STDOUT]
Checking plan: /home/jfan5/Safety-gen/runs/benchmark/optic/grippers_20260201_172244/grippers/optic_results/grippers-n2-r20-o18-s18001.plan
Plan executed successfully - checking goal
Plan valid
Final value: 71 

Successful plans:
Value: 71
 /home/jfan5/Safety-gen/runs/benchmark/optic/grippers_20260201_172244/grippers/optic_results/grippers-n2-r20-o18-s18001.plan 71
